n = 11;
k = 2;
maxsize = 11;
nML = 2;
nCL = 2;
deg = [2, 1, 4, 4, 3, 4, 4, 3, 2, 2, 3];
ML = array2d(1..2, 1..2, [5, 7, 4, 10]);
CL = array2d(1..2, 1..2, [11, 1, 8, 6]);
A = array2d(1..11, 1..11, [ 0, 0, 0, 0, 1, 0, 0, 1, 0, 0, 0, 0, 0, 0, 0, 0, 0, 0, 1, 0, 0, 0, 0, 0, 0, 0, 1, 1, 0, 1, 0, 0, 1, 0, 0, 0, 0, 0, 1, 1, 0, 1, 0, 1, 1, 0, 1, 0, 0, 0, 0, 0, 0, 1, 0, 0, 0, 1, 1, 0, 0, 1, 0, 1, 0, 0, 0, 0, 0, 1, 0, 1, 0, 0, 0, 1, 1, 1, 1, 1, 0, 0, 0, 0, 0, 0, 0, 0, 0, 0, 0, 1, 0, 1, 0, 0, 0, 0, 0, 0, 0, 0, 0, 1, 0, 1, 0, 0, 0, 0, 0, 0, 1, 1, 0, 0, 1, 0, 0, 0, 0 ]);
W = array2d(1..11, 1..11, [ -10, -5, 8, -10, -8, -6, -7, 2, -7, -2, -7, 0, -5, 4, -5, -7, -7, 6, 2, 9, 10, 8, 6, -9, -4, 5, 7, 4, 5, -4, -1, -4, -10, -9, -2, 6, 4, -4, 3, -7, -1, 7, -1, -2, 3, 3, -4, 1, 0, 3, -10, 5, 2, 6, 1, 10, 6, 4, -3, 3, -7, -5, -3, -8, 9, -2, -2, -9, -5, 7, -4, 3, 0, 6, 6, 8, -7, -6, 10, 6, -3, 5, 7, 2, 7, 5, -4, -9, 0, 4, 3, 2, -6, -7, -10, 5, -3, -9, -6, 7, -6, 0, 6, -8, 6, -7, -10, -1, 8, 5, -9, -8, 6, 0, 10, -1, -7, 3, 5, 9, 3 ]);